&BANDS
 outdir='.',
 prefix='MoS2',
 filband='MoS2.bands',
/
