
                       !===============!
                       !==== PW.X =====!
                       !===============!
  
	 ! scf calculations to find ground state.

!======================================================================
!======================================================================
&CONTROL
	calculation = 'scf' , ! find ground state, not relax structure
	restart_mode='from_scratch', ! 'from_scratch': start from beginning, 'restart' : Continue previous interrupted run
	pseudo_dir = '../Pseudo' , ! folder contains pseudo-potentials
	prefix = '5AGNR' , ! name of folder contains data of calculation
	forc_conv_thr = 1.0D-4 ,  ! force convergen threshold (a.u)
	etot_conv_thr = 1.0D-4, ! Convergence threshold on total energy (a.u)
	verbosity = 'low' , ! set 'high' for 'bands' calculation
  	tprnfor = .true.
  	tstress = .true.
!======================================================================
!======================================================================
! CARD SYSTEMS: lattice vectors, number of atoms, number of type of atoms, energy cut

 /
 &SYSTEM
  		ibrav=8,
  		a=4.30701873, 
  		b=16.1999507,
  		c=15.0004648,
		nat = 14, ! number of atoms 
		ntyp = 2, ! number of different type of atoms
		ecutwfc = 90.0, ! energy cutof (Ry) in expansion of wave function
		ecutrho = 270.0, ! energy cutof (Ry) for electron charge density
		occupations='fixed', ! 'gaussian' smearing for metals, 'fixed' for insulators with a gap           
		!smearing='mv',
		!degauss=0.005d0,
		!input_dft='PBE', ! 'PBE', 'BLYP','vdw-df' etc
!======================================================================
!======================================================================
! CARD ELECTRONS:

 /
 &ELECTRONS
		diagonalization ='david',
		mixing_mode = 'local-TF',
		conv_thr = 1.0d-8,
		mixing_beta = 0.5, ! if convergence is difficult to obtain, reduce this number to 0.1-0.3
		electron_maxstep=200, ! usually convergence is achieved less than 100 sc loops
!======================================================================
!======================================================================
! CARD IONS: input this namelist only if calculation == 'relax', 'md', 'vc-relax', or 'vc-md' 

 /
&IONS
   !(default)  use BFGS quasi-newton algorithm

!======================================================================
!======================================================================
! CARD ATOMIC SPECIES AND ATOM POSITIONS:

/
ATOMIC_SPECIES
    C   12.01070  C.pbe-rrkjus.UPF
    H   1.007940  H.pbe-rrkjus.UPF
ATOMIC_POSITIONS {crystal}
C             0.6589722805        0.3116851987        0.5000000000
C             0.8334726819        0.3858216220        0.5000000000
C             0.3410277195        0.3116851987        0.5000000000
C             0.6668963139        0.4619152984        0.5000000000
C             0.8334668195        0.5380047455        0.5000000000
C             0.1665273181        0.3858216220        0.5000000000
C             0.3331036861        0.4619152984        0.5000000000
C             0.6589809858        0.6121420161        0.5000000000
C             0.1665331805        0.5380047455        0.5000000000
C             0.3410190142        0.6121420161        0.5000000000
H             0.7778941161        0.2524818012        0.5000000000
H             0.2221058839        0.2524818012        0.5000000000
H             0.7779966708        0.6713186511        0.5000000000
H             0.2220033292        0.6713186511        0.5000000000

!======================================================================
!======================================================================
! CARD K-MESH:
   
K_POINTS automatic 
	40 1 1   0 0 0  ! follows by nk1  nk2  nk3  sk1  sk2  sk3