
                       !================!
                       !==== Q2R.X =====!
                       !================!
  
! Calculate IFCs on real space

!======================================================================
!======================================================================
&input
 fildyn='5AGNR.dyn',
 zasr='simple', ! Acoustic sum rule
 flfrc='5AGNR.fc',
/

