
                       !================!
                       !==== Q2R.X =====!
                       !================!
  
! Calculate IFCs on real space

!======================================================================
!======================================================================
&input
 fildyn='Si.dyn',
 zasr='simple', ! Acoustic sum rule
 flfrc='Si.fc',
/

