
                       !===============!
                       !==== PW.X =====!
                       !===============!
  
	 ! scf calculations to find ground state.

!======================================================================
!======================================================================
&CONTROL
	calculation = 'scf' , ! find ground state, not relax structure
	restart_mode='from_scratch', ! 'from_scratch': start from beginning, 'restart' : Continue previous interrupted run
	pseudo_dir = '../Pseudo' , ! folder contains pseudo-potentials
	prefix = 'Silicon' , ! name of folder contains data of calculation
	forc_conv_thr = 1.0D-4 ,  ! force convergen threshold (a.u)
	etot_conv_thr = 1.0D-8, ! Convergence threshold on total energy (a.u)
	verbosity = 'low' , ! set 'high' for 'bands' calculation
  	tprnfor = .true.
  	tstress = .true.
!======================================================================
!======================================================================
! CARD SYSTEMS: lattice vectors, number of atoms, number of type of atoms, energy cut

 /
 &SYSTEM
  		ibrav=2,
    	celldm(1)=10.2623466921d0
    	!c = 20.0000,
		nat = 2, ! number of atoms 
		ntyp = 1, ! number of different type of atoms
		ecutwfc = 40.0, ! energy cutof (Ry) in expansion of wave function
		ecutrho = 200.0, ! energy cutof (Ry) for electron charge density
		occupations='fixed', ! 'gaussian' smearing for metals, 'fixed' for insulators with a gap           
		!smearing='methfessel-paxton',
		!degauss=0.02d0,
		!input_dft='PBE', ! 'PBE', 'BLYP','vdw-df' etc
!======================================================================
!======================================================================
! CARD ELECTRONS:

 /
 &ELECTRONS
		diagonalization ='david',
		mixing_mode = 'local-TF',
		conv_thr = 1.0d-10,
		mixing_beta = 0.5, ! if convergence is difficult to obtain, reduce this number to 0.1-0.3
		electron_maxstep=200, ! usually convergence is achieved less than 100 sc loops
!======================================================================
!======================================================================
! CARD IONS: input this namelist only if calculation == 'relax', 'md', 'vc-relax', or 'vc-md' 

 /
&IONS
   !(default)  use BFGS quasi-newton algorithm

!======================================================================
!======================================================================
! CARD ATOMIC SPECIES AND ATOM POSITIONS:

/
ATOMIC_SPECIES
 Si  28.086  Si.pbe-rrkj.UPF
ATOMIC_POSITIONS {crystal}
  Si   0.0000000000d0   0.0000000000d0   0.0000000000d0
  Si   0.2500000000d0   0.2500000000d0   0.2500000000d0 

!======================================================================
!======================================================================
! CARD K-MESH:
   
K_POINTS automatic 
	12 12 12   0 0 0  ! follows by nk1  nk2  nk3  sk1  sk2  sk3
