
                       !================!
                       !==== Q2R.X =====!
                       !================!
  
! Calculate IFCs on real space

!======================================================================
!======================================================================
&input
 fildyn='2Dgraphene.dyn',
 zasr='simple', ! Acoustic sum rule
 flfrc='2Dgraphene.fc',
/

