
                       !===============!
                       !==== PH.X =====!
                       !===============!
  
! Calculate Force constant over q-vectors from 'scf' or 'relax' calculations.

!======================================================================
!======================================================================
&inputph
 outdir=".",
 prefix="2Dgraphene",
 tr2_ph = 1d-20,
 ldisp = .true.,
 nq1=7, nq2=7, nq3=1,
 amass(1)=12.0107,
 fildyn='2Dgraphene.dyn',
/

