&BANDS
 outdir='.',
 prefix='2Dgraphene',
 filband='2Dgraphene.bands',
/
