
                       !================!
                       !==== Q2R.X =====!
                       !================!
  
! Calculate IFCs on real space

!======================================================================
!======================================================================
&input
 fildyn='Chain2atoms.dyn',
 zasr='simple', ! Acoustic sum rule
 flfrc='Chain2atoms.fc',
/

