
                       !===============!
                       !==== PW.X =====!
                       !===============!
  
	 ! scf calculations to find ground state.

!======================================================================
!======================================================================
&CONTROL
	calculation = 'scf' , ! find ground state, not relax structure
	restart_mode='from_scratch', ! 'from_scratch': start from beginning, 'restart' : Continue previous interrupted run
	pseudo_dir = '../Pseudo' , ! folder contains pseudo-potentials
	prefix = 'Chain2atoms' , ! name of folder contains data of calculation
	forc_conv_thr = 1.0D-4 ,  ! force convergen threshold (a.u)
	etot_conv_thr = 1.0D-4, ! Convergence threshold on total energy (a.u)
	verbosity = 'low' , ! set 'high' for 'bands' calculation
  	tprnfor = .true.
  	tstress = .true.
!======================================================================
!======================================================================
! CARD SYSTEMS: lattice vectors, number of atoms, number of type of atoms, energy cut

 /
 &SYSTEM
  		ibrav=8,
  		a=2.6207435988, 
  		b=20,
  		c=20,
		nat = 2, ! number of atoms 
		ntyp = 2, ! number of different type of atoms
		ecutwfc = 80.0, ! energy cutof (Ry) in expansion of wave function
		ecutrho = 320.0, ! energy cutof (Ry) for electron charge density
		occupations='fixed', ! 'gaussian' smearing for metals, 'fixed' for insulators with a gap           
		!smearing='mv',
		!degauss=0.005d0,
		!input_dft='PBE', ! 'PBE', 'BLYP','vdw-df' etc
!======================================================================
!======================================================================
! CARD ELECTRONS:

 /
 &ELECTRONS
		diagonalization ='david',
		mixing_mode = 'local-TF',
		conv_thr = 1.0d-8,
		mixing_beta = 0.5, ! if convergence is difficult to obtain, reduce this number to 0.1-0.3
		electron_maxstep=200, ! usually convergence is achieved less than 100 sc loops
!======================================================================
!======================================================================
! CARD IONS: input this namelist only if calculation == 'relax', 'md', 'vc-relax', or 'vc-md' 

 /
&IONS
   !(default)  use BFGS quasi-newton algorithm

!======================================================================
!======================================================================
! CARD ATOMIC SPECIES AND ATOM POSITIONS:

/
ATOMIC_SPECIES
B 10.811 B.pbe-n-rrkjus_psl.1.0.0.UPF
N 14.0067 N.pbe-rrkjus.UPF
ATOMIC_POSITIONS {angstrom}
B            -0.3698341038        0.0000000000        0.0000000000
N             0.9402750897        0.0000000000        0.0000000000

!======================================================================
!======================================================================
! CARD K-MESH:
   
K_POINTS automatic 
	18 1 1   0 0 0  ! follows by nk1  nk2  nk3  sk1  sk2  sk3