
                       !================!
                       !==== Q2R.X =====!
                       !================!
  
! Calculate IFCs on real space

!======================================================================
!======================================================================
&input
 fildyn='MoS2.dyn',
 zasr='simple', ! Acoustic sum rule
 flfrc='MoS2.fc',
/

