&BANDS
 outdir='.',
 prefix='5AGNR',
 filband='5AGNR.bands',
/
