&BANDS
 outdir='.',
 prefix='6AGNR',
 filband='6AGNR.bands',
/
